c 157_3_checker.cnf
c
c field = 157
c formula set type = 3_checker
c
p cnf 4 64
306 
308 
310 
-304 
307 
309 
311 
-305 
306 
308 
310 
-314 
307 
309 
311 
-315 
308 
310 
314 
-306 
309 
311 
315 
-307 
308 
310 
314 
-316 
309 
311 
315 
-317 
310 
314 
316 
-308 
311 
315 
317 
-309 
310 
314 
316 
-318 
311 
315 
317 
-319 
314 
316 
318 
-310 
315 
317 
319 
-311 
314 
316 
318 
-320 
315 
317 
319 
-321 
222 
252 
282 
-192 
223 
253 
283 
-193 
222 
252 
282 
-342 
223 
253 
283 
-343 
252 
282 
342 
-222 
253 
283 
343 
-223 
252 
282 
342 
-372 
253 
283 
343 
-373 
282 
342 
372 
-252 
283 
343 
373 
-253 
282 
342 
372 
-402 
283 
343 
373 
-403 
342 
372 
402 
-282 
343 
373 
403 
-283 
342 
372 
402 
-432 
343 
373 
403 
-433 
216 
248 
280 
-184 
217 
249 
281 
-185 
216 
248 
280 
-344 
217 
249 
281 
-345 
248 
280 
344 
-216 
249 
281 
345 
-217 
248 
280 
344 
-376 
249 
281 
345 
-377 
280 
344 
376 
-248 
281 
345 
377 
-249 
280 
344 
376 
-408 
281 
345 
377 
-409 
344 
376 
408 
-280 
345 
377 
409 
-281 
344 
376 
408 
-440 
345 
377 
409 
-441 
228 
256 
284 
-200 
229 
257 
285 
-201 
228 
256 
284 
-340 
229 
257 
285 
-341 
256 
284 
340 
-228 
257 
285 
341 
-229 
256 
284 
340 
-368 
257 
285 
341 
-369 
284 
340 
368 
-256 
285 
341 
369 
-257 
284 
340 
368 
-396 
285 
341 
369 
-397 
340 
368 
396 
-284 
341 
369 
397 
-285 
340 
368 
396 
-424 
341 
369 
397 
-425 
